(set-logic ALL)
(set-option :produce-models true)
(declare-sort BoundSet 0)
(declare-sort UnboundSet 0)
(set-option :finite-model-find true)
(declare-fun IsOutdoors (BoundSet) Bool)
(declare-fun IsHolding (BoundSet BoundSet) Bool)
(declare-fun IsSmall (BoundSet) Bool)
(declare-fun IsCrying (BoundSet) Bool)
(declare-fun IsWizard (BoundSet) Bool)
(assert (not (=> (exists ((c BoundSet)) (IsOutdoors c)) (exists ((e BoundSet)) (exists ((a BoundSet)) (exists ((b BoundSet)) (exists ((d BoundSet)) (and (IsHolding a b) (and (IsSmall d) (and (IsCrying d) (IsWizard e)))))))))))
(check-sat)
(get-model)